certificates/rado_a14_c198_N26.cnf
c Rad2 upper bound instance: x1 + 14*x2 - x3 = 198, interval [1,26]
p cnf 26 96
1 13 15 0
-1 -13 -15 0
2 14 15 0
-2 -14 -15 0
1 3 14 0
-1 -3 -14 0
3 15 0
-3 -15 0
2 4 14 0
-2 -4 -14 0
4 15 16 0
-4 -15 -16 0
3 5 14 0
-3 -5 -14 0
5 15 17 0
-5 -15 -17 0
4 6 14 0
-4 -6 -14 0
6 15 18 0
-6 -15 -18 0
5 7 14 0
-5 -7 -14 0
7 15 19 0
-7 -15 -19 0
6 8 14 0
-6 -8 -14 0
8 15 20 0
-8 -15 -20 0
7 9 14 0
-7 -9 -14 0
9 15 21 0
-9 -15 -21 0
8 10 14 0
-8 -10 -14 0
10 15 22 0
-10 -15 -22 0
9 11 14 0
-9 -11 -14 0
11 15 23 0
-11 -15 -23 0
10 12 14 0
-10 -12 -14 0
12 15 24 0
-12 -15 -24 0
11 13 14 0
-11 -13 -14 0
13 15 25 0
-13 -15 -25 0
12 14 0
-12 -14 0
14 15 26 0
-14 -15 -26 0
13 14 15 0
-13 -14 -15 0
14 16 0
-14 -16 0
1 13 17 0
-1 -13 -17 0
14 15 17 0
-14 -15 -17 0
2 13 18 0
-2 -13 -18 0
14 16 18 0
-14 -16 -18 0
3 13 19 0
-3 -13 -19 0
14 17 19 0
-14 -17 -19 0
4 13 20 0
-4 -13 -20 0
14 18 20 0
-14 -18 -20 0
5 13 21 0
-5 -13 -21 0
14 19 21 0
-14 -19 -21 0
6 13 22 0
-6 -13 -22 0
14 20 22 0
-14 -20 -22 0
7 13 23 0
-7 -13 -23 0
14 21 23 0
-14 -21 -23 0
8 13 24 0
-8 -13 -24 0
14 22 24 0
-14 -22 -24 0
9 13 25 0
-9 -13 -25 0
14 23 25 0
-14 -23 -25 0
10 13 26 0
-10 -13 -26 0
14 24 26 0
-14 -24 -26 0
