certificates/rado_a14_c198_N26.drat
-24 -26 0
d -24 -14 -26 0
15 24 0
d 12 15 24 0
13 -26 0
-26 0
14 -15 0
-14 -15 0
d -14 -13 -15 0
-15 0
3 0
24 0
14 0
-22 0
-12 0
-16 0
-1 0
-5 0
10 0
4 0
13 0
17 0
-8 0
-2 0
-6 0
-20 0
-19 0
-11 0
0
